Problem:    
Rows:       256
Columns:    89 (72 integer, 72 binary)
Non-zeros:  800
Status:     INTEGER OPTIMAL
Objective:  value = 91.28058 (MINimum)

   No.   Row name        Activity     Lower bound   Upper bound
------ ------------    ------------- ------------- -------------
     1 r.5                   91.2806             0               
     2 r.6                   -984.92      -985.417               
     3 r.7                   1091.28             0               
     4 r.8                  -951.041      -980.888               
     5 r.9                   91.2806             0               
     6 r.10                 -984.287      -984.785               
     7 r.11                  1091.28             0               
     8 r.12                 -979.095      -979.592               
     9 r.13                  1091.28             0               
    10 r.14                 -945.866      -973.293               
    11 r.15                  91.2806             0               
    12 r.16                  54.1337      -964.932               
    13 r.17                  1091.28             0               
    14 r.18                 -985.804      -986.301               
    15 r.19                  91.2806             0               
    16 r.20                  -981.55      -982.048               
    17 r.21                  1091.28             0               
    18 r.22                 -972.573      -986.769               
    19 r.23                  91.2806             0               
    20 r.24                 -982.085      -982.582               
    21 r.25                  1091.28             0               
    22 r.26                 -999.503      -999.503               
    23 r.27                  91.2806             0               
    24 r.28                 0.497444      -999.163               
    25 r.29                  91.2806             0               
    26 r.30                 -913.865      -962.824               
    27 r.31                  1091.28             0               
    28 r.32                 -908.719      -957.679               
    29 r.33                  1091.28             0               
    30 r.34                 -908.719      -962.853               
    31 r.35                  91.2806             0               
    32 r.36                  91.2806      -957.558               
    33 r.37                        1             1             = 
    34 r.38                        1             1             = 
    35 r.39                        1             1             = 
    36 r.40                        1             1             = 
    37 r.41                        1             1             = 
    38 r.42                        1             1             = 
    39 r.43                        1             1             = 
    40 r.44                        1             1             = 
    41 r.45                     1000             2               
    42 r.46                    -1000         -1001               
    43 r.47                  2000.63      -984.785               
    44 r.48                        2             2               
    45 r.49                       -2         -1001               
    46 r.50                 -28.0539      -979.592               
    47 r.51                     1001             2               
    48 r.52                    -1001         -1001               
    49 r.53                  3039.05      -973.293               
    50 r.54                     1001             2               
    51 r.55                    -1001         -1001               
    52 r.56                  2005.17      -964.932               
    53 r.57                     1001             2               
    54 r.58                    -1001         -1001               
    55 r.59                  2999.12      -986.301               
    56 r.60                     1001             2               
    57 r.61                    -1001         -1001               
    58 r.62                   969.49      -982.048               
    59 r.63                     1001             2               
    60 r.64                    -1001         -1001               
    61 r.65                  3012.35      -986.769               
    62 r.66                     1001             2               
    63 r.67                    -1001         -1001               
    64 r.68                  968.956      -982.582               
    65 r.69                 -985.417      -985.417               
    66 r.70                 -951.538      -980.888               
    67 r.71                 -985.417      -985.417               
    68 r.72                 -951.538      -980.888               
    69 r.73                  71.0552      -962.824               
    70 r.74                  76.2006      -957.679               
    71 r.75                 -962.824      -962.824               
    72 r.76                 -957.679      -957.679               
    73 r.77                     1001             2               
    74 r.78                    -1001         -1001               
    75 r.79                   3076.2      -962.853               
    76 r.80                     1001             2               
    77 r.81                    -1001         -1001               
    78 r.82                  2042.32      -957.558               
    79 r.83                     1000             2               
    80 r.84                    -1000         -1001               
    81 r.85                  1999.37       14.5826               
    82 r.86                        2             2               
    83 r.87                       -2         -1001               
    84 r.88                  28.0539       19.1118               
    85 r.89                     1001             2               
    86 r.90                    -1001         -1001               
    87 r.91                  3038.42      -973.293               
    88 r.92                     1001             2               
    89 r.93                    -1001         -1001               
    90 r.94                  2033.23      -964.932               
    91 r.95                     1001             2               
    92 r.96                    -1001         -1001               
    93 r.97                  2998.48      -986.301               
    94 r.98                     1001             2               
    95 r.99                    -1001         -1001               
    96 r.100                 997.544      -982.048               
    97 r.101                    1001             2               
    98 r.102                   -1001         -1001               
    99 r.103                 3011.71      -986.769               
   100 r.104                    1001             2               
   101 r.105                   -1001         -1001               
   102 r.106                  997.01      -982.582               
   103 r.107                -984.785      -984.785               
   104 r.108                -979.592      -979.592               
   105 r.109                -984.785      -984.785               
   106 r.110                -979.592      -979.592               
   107 r.111                    1000             2               
   108 r.112                   -1000         -1001               
   109 r.113                 2070.42      -962.824               
   110 r.114                       2             2               
   111 r.115                      -2         -1001               
   112 r.116                -929.625      -957.679               
   113 r.117                 75.5678      -962.853               
   114 r.118                 1075.57      -957.558               
   115 r.119                -929.625      -962.853               
   116 r.120                 70.3752      -957.558               
   117 r.121                    1001             2               
   118 r.122                   -1001         -1001               
   119 r.123                 960.946       14.5826               
   120 r.124                    1001             2               
   121 r.125                   -1001         -1001               
   122 r.126                 1994.83       19.1118               
   123 r.127                    1001             2               
   124 r.128                   -1001         -1001               
   125 r.129                 961.579       15.2153               
   126 r.130                    1001             2               
   127 r.131                   -1001         -1001               
   128 r.132                 1966.77       20.4079               
   129 r.133                -960.062      -973.293               
   130 r.134                 39.9376      -964.932               
   131 r.135                 35.6841      -973.293               
   132 r.136                 1035.68      -964.932               
   133 r.137                       2             2               
   134 r.138                      -2         -1001               
   135 r.139                -26.7067      -986.769               
   136 r.140                    1000             2               
   137 r.141                   -1000         -1001               
   138 r.142                 963.781      -982.582               
   139 r.143                -946.364      -973.293               
   140 r.144                 53.6363      -964.932               
   141 r.145                -946.364      -973.293               
   142 r.146                 53.6363      -964.932               
   143 r.147                    1001             2               
   144 r.148                   -1001         -1001               
   145 r.149                    1032      -962.824               
   146 r.150                    1001             2               
   147 r.151                   -1001         -1001               
   148 r.152                 2037.15      -957.679               
   149 r.153                -962.853      -962.853               
   150 r.154                 37.1469      -957.558               
   151 r.155                -962.853      -962.853               
   152 r.156                 37.1469      -957.558               
   153 r.157                    1001             2               
   154 r.158                   -1001         -1001               
   155 r.159                 1000.88       14.5826               
   156 r.160                    1001             2               
   157 r.161                   -1001         -1001               
   158 r.162                 3030.51       19.1118               
   159 r.163                    1001             2               
   160 r.164                   -1001         -1001               
   161 r.165                 1001.52       15.2153               
   162 r.166                    1001             2               
   163 r.167                   -1001         -1001               
   164 r.168                 3002.46       20.4079               
   165 r.169                       2             2               
   166 r.170                      -2         -1001               
   167 r.171                -986.769      -986.769               
   168 r.172                    1000             2               
   169 r.173                   -1000         -1001               
   170 r.174                 1999.47      -982.582               
   171 r.175                -986.301      -986.301               
   172 r.176                -982.048      -982.048               
   173 r.177                -986.301      -986.301               
   174 r.178                -982.048      -982.048               
   175 r.179                    1001             2               
   176 r.180                   -1001         -1001               
   177 r.181                 1071.94      -962.824               
   178 r.182                    1001             2               
   179 r.183                   -1001         -1001               
   180 r.184                 3072.83      -957.679               
   181 r.185                -922.916      -962.853               
   182 r.186                 77.0844      -957.558               
   183 r.187                  72.831      -962.853               
   184 r.188                 1072.83      -957.558               
   185 r.189                    1001             2               
   186 r.190                   -1001         -1001               
   187 r.191                 987.653       14.5826               
   188 r.192                    1001             2               
   189 r.193                   -1001         -1001               
   190 r.194                 3031.04       19.1118               
   191 r.195                    1001             2               
   192 r.196                   -1001         -1001               
   193 r.197                 988.286       15.2153               
   194 r.198                    1001             2               
   195 r.199                   -1001         -1001               
   196 r.200                 3002.99       20.4079               
   197 r.201                       2             2               
   198 r.202                      -2         -1001               
   199 r.203                 26.7067       26.7067               
   200 r.204                    1000             2               
   201 r.205                   -1000         -1001               
   202 r.206                 3036.22       35.0683               
   203 r.207                       2             2               
   204 r.208                      -2         -1001               
   205 r.209                 986.769       13.6987               
   206 r.210                    1000             2               
   207 r.211                   -1000         -1001               
   208 r.212                 2000.53       17.9522               
   209 r.213                 -973.07      -986.769               
   210 r.214                -982.582      -982.582               
   211 r.215                 -973.07      -986.769               
   212 r.216                -982.582      -982.582               
   213 r.217                -941.292      -962.824               
   214 r.218                -936.146      -957.679               
   215 r.219                   68.22      -962.824               
   216 r.220                 73.3654      -957.679               
   217 r.221                -936.146      -962.853               
   218 r.222                 63.8536      -957.558               
   219 r.223                 73.3654      -962.853               
   220 r.224                 1073.37      -957.558               
   221 r.225                    1000             2               
   222 r.226                   -1000         -1001               
   223 r.227                 1929.58       15.2153               
   224 r.228                       2             2               
   225 r.229                      -2         -1001               
   226 r.230                 929.625       20.4079               
   227 r.231                    1001             2               
   228 r.232                   -1001         -1001               
   229 r.233                    2968       26.7067               
   230 r.234                    1001             2               
   231 r.235                   -1001         -1001               
   232 r.236                 1962.85       35.0683               
   233 r.237                    1001             2               
   234 r.238                   -1001         -1001               
   235 r.239                 2928.06       13.6987               
   236 r.240                    1001             2               
   237 r.241                   -1001         -1001               
   238 r.242                 927.169       17.9522               
   239 r.243                    1001             2               
   240 r.244                   -1001         -1001               
   241 r.245                 3005.15      -962.853               
   242 r.246                    1001             2               
   243 r.247                   -1001         -1001               
   244 r.248                    2000      -957.558               
   245 r.249                    1001             2               
   246 r.250                   -1001         -1001               
   247 r.251                 923.799       14.5826               
   248 r.252                    1001             2               
   249 r.253                   -1001         -1001               
   250 r.254                 1957.68       19.1118               
   251 r.255                    1001             2               
   252 r.256                   -1001         -1001               
   253 r.257                 994.855       37.1759               
   254 r.258                    1001             2               
   255 r.259                   -1001         -1001               
   256 r.260                    2000       42.3213               

   No. Column name       Activity     Lower bound   Upper bound
------ ------------    ------------- ------------- -------------
     1 tt                    91.2806             0               
     2 s_1_1        *              0             0             1 
     3 t_1_1                  1076.2             0               
     4 s_1_7        *              0             0             1 
     5 s_2_1        *              1             0             1 
     6 t_2_1                 42.3213             0               
     7 s_2_7        *              1             0             1 
     8 s_1_2        *              0             0             1 
     9 t_1_2                 1075.57             0               
    10 s_1_8        *              1             0             1 
    11 s_2_2        *              1             0             1 
    12 t_2_2                 70.3752             0               
    13 s_2_8        *              0             0             1 
    14 s_1_3        *              1             0             1 
    15 t_1_3                 37.1469             0               
    16 s_2_3        *              0             0             1 
    17 t_2_3                 37.1469             0               
    18 s_1_4        *              1             0             1 
    19 t_1_4                 77.0844             0               
    20 s_2_4        *              0             0             1 
    21 t_2_4                 1072.83             0               
    22 s_1_5        *              1             0             1 
    23 t_1_5                 63.8536             0               
    24 s_2_5        *              0             0             1 
    25 t_2_5                 1073.37             0               
    26 s_1_6        *              1             0             1 
    27 t_1_6                 90.7831             0               
    28 s_2_6        *              0             0             1 
    29 t_2_6                 90.7831             0               
    30 t_1_7                 1005.15             0               
    31 t_2_7                       0             0               
    32 t_1_8                       0             0               
    33 t_2_8                       0             0               
    34 r_1_1_2      *              1             0             1 
    35 u_1_1_2      *              0             0             1 
    36 r_2_1_2      *              0             0             1 
    37 u_2_1_2      *              0             0             1 
    38 r_1_1_3      *              1             0             1 
    39 u_1_1_3      *              0             0             1 
    40 r_2_1_3      *              1             0             1 
    41 u_2_1_3      *              0             0             1 
    42 r_1_1_4      *              1             0             1 
    43 u_1_1_4      *              0             0             1 
    44 r_2_1_4      *              1             0             1 
    45 u_2_1_4      *              0             0             1 
    46 r_1_1_5      *              1             0             1 
    47 u_1_1_5      *              0             0             1 
    48 r_2_1_5      *              1             0             1 
    49 u_2_1_5      *              0             0             1 
    50 r_1_1_8      *              1             0             1 
    51 u_1_1_8      *              0             0             1 
    52 r_2_1_8      *              1             0             1 
    53 u_2_1_8      *              0             0             1 
    54 r_1_2_3      *              1             0             1 
    55 u_1_2_3      *              0             0             1 
    56 r_2_2_3      *              1             0             1 
    57 u_2_2_3      *              0             0             1 
    58 r_1_2_4      *              1             0             1 
    59 u_1_2_4      *              0             0             1 
    60 r_2_2_4      *              1             0             1 
    61 u_2_2_4      *              0             0             1 
    62 r_1_2_5      *              1             0             1 
    63 u_1_2_5      *              0             0             1 
    64 r_2_2_5      *              1             0             1 
    65 u_2_2_5      *              0             0             1 
    66 r_1_2_7      *              1             0             1 
    67 u_1_2_7      *              0             0             1 
    68 r_2_2_7      *              0             0             1 
    69 u_2_2_7      *              1             0             1 
    70 r_1_3_5      *              0             0             1 
    71 u_1_3_5      *              0             0             1 
    72 r_2_3_5      *              1             0             1 
    73 u_2_3_5      *              0             0             1 
    74 r_1_3_7      *              1             0             1 
    75 u_1_3_7      *              0             0             1 
    76 r_2_3_7      *              1             0             1 
    77 u_2_3_7      *              0             0             1 
    78 r_1_4_5      *              0             0             1 
    79 u_1_4_5      *              1             0             1 
    80 r_2_4_5      *              1             0             1 
    81 u_2_4_5      *              0             0             1 
    82 r_1_4_7      *              1             0             1 
    83 u_1_4_7      *              0             0             1 
    84 r_2_4_7      *              1             0             1 
    85 u_2_4_7      *              0             0             1 
    86 r_1_7_8      *              1             0             1 
    87 u_1_7_8      *              0             0             1 
    88 r_2_7_8      *              1             0             1 
    89 u_2_7_8      *              0             0             1 

Integer feasibility conditions:

KKT.PE: max.abs.err = 4.55e-13 on row 99
        max.rel.err = 1.10e-16 on row 187
        High quality

KKT.PB: max.abs.err = 1.14e-13 on row 22
        max.rel.err = 4.10e-15 on row 199
        High quality

End of output
